50, 13779
713, 815
840, 938
183, 283
999, 1101
195, 296
671, 771
92, 191
758, 859
152, 251
707, 808
725, 826
766, 865
442, 543
866, 966
988, 1088
116, 218
517, 616
959, 1057
740, 840
445, 545
305, 407
954, 1053
86, 185
761, 859
844, 944
158, 257
327, 427
306, 407
543, 641
367, 469
894, 995
925, 1027
317, 417
895, 995
70, 170
97, 196
666, 765
800, 899
820, 919
992, 1091
860, 962
267, 368
743, 844
925, 1023
94, 193
495, 595
155, 256
144, 244
480, 581
671, 773
